
vasp.synthetic 6.x                         17Sep2026
------------------------------------------------------------
SYNTHETIC TRAINING OUTPUT — not produced by VASP
SYSTEM = Mg_O_q+4_bond_expand_1.20
INCAR:
  ENCUT = 600
  EDIFF  = 1.0E-06
  EDIFFG = -2.0E-02
  ISMEAR = 0
  SIGMA  = 0.05
  ISPIN  = 2
  IBRION = 2
  NSW    = 120

POSCAR: ions per type = 33 31
NIONS = 64
NELECT = 636.000
NKPTS = 8
k-point mesh = 2 2 2

Iteration   1(  1)  E0= -397.32188300  d E = -8.42117E-01
Iteration   2(  1)  E0= -397.99019500  d E = -6.68312E-01
Iteration   3(  1)  E0= -398.14235600  d E = -1.52161E-01
Iteration   4(  1)  E0= -398.16279300  d E = -2.04370E-02
Iteration   5(  1)  E0= -398.16400000  d E = -1.20700E-03

POSITION                                       TOTAL-FORCE (eV/Angst)
-----------------------------------------------------------------------------------
  0.00000  0.00000  0.00000          0.020667  0.000000  0.000000
  2.10600  2.10600  2.10600        - 0.020667  0.000000  0.000000
-----------------------------------------------------------------------------------
total drift:                              0.000001 -0.000002  0.000001

  energy  without entropy= -398.16367900  energy(sigma->0) = -398.16400000
  free  energy   TOTEN  = -398.16411400 eV
  final energy (E0)     = -398.16400000 eV
  number of ionic steps = 36
  maximum force         = 0.020667 eV/Ang
  volume of cell        = 597.798849 Ang^3

reached required accuracy - stopping structural energy minimisation
General timing and accounting informations for this job:
  Total CPU time used (sec): 73.42
------------------------------------------------------------
