Mg_O q=+4 bond_expand_1.20 initial
1.0
8.424000 0.000000 0.000000
0.000000 8.424000 0.000000
0.000000 0.000000 8.424000
Mg O
33 31
Direct
0.00250000 0.99875000 0.00083333
0.99750000 0.25125000 0.24916667
0.25250000 0.99875000 0.25083333
0.24750000 0.25125000 0.99916667
0.00250000 0.99875000 0.50083333
0.99750000 0.25125000 0.74916667
0.25250000 0.99875000 0.75083333
0.24750000 0.25125000 0.49916667
0.00250000 0.49875000 0.00083333
0.99750000 0.75125000 0.24916667
0.25250000 0.49875000 0.25083333
0.24750000 0.75125000 0.99916667
0.00250000 0.49875000 0.50083333
0.99750000 0.75125000 0.74916667
0.25250000 0.49875000 0.75083333
0.24750000 0.75125000 0.49916667
0.50250000 0.99875000 0.00083333
0.49750000 0.25125000 0.24916667
0.75250000 0.99875000 0.25083333
0.74750000 0.25125000 0.99916667
0.50250000 0.99875000 0.50083333
0.49750000 0.25125000 0.74916667
0.75250000 0.99875000 0.75083333
0.74750000 0.25125000 0.49916667
0.50250000 0.49875000 0.00083333
0.49750000 0.75125000 0.24916667
0.75250000 0.49875000 0.25083333
0.74750000 0.75125000 0.99916667
0.50250000 0.49875000 0.50083333
0.49750000 0.75125000 0.74916667
0.75250000 0.49875000 0.75083333
0.74750000 0.75125000 0.49916667
0.25250000 0.24875000 0.25083333
0.25000000 0.00000000 0.00000000
0.00000000 0.25000000 0.00000000
0.00000000 0.00000000 0.25000000
0.25000000 0.25000000 0.75000000
0.25000000 0.00000000 0.50000000
0.00000000 0.25000000 0.50000000
0.00000000 0.00000000 0.75000000
0.25000000 0.75000000 0.25000000
0.25000000 0.50000000 0.00000000
0.00000000 0.75000000 0.00000000
0.00000000 0.50000000 0.25000000
0.25000000 0.75000000 0.75000000
0.25000000 0.50000000 0.50000000
0.00000000 0.75000000 0.50000000
0.00000000 0.50000000 0.75000000
0.75000000 0.25000000 0.25000000
0.75000000 0.00000000 0.00000000
0.50000000 0.25000000 0.00000000
0.50000000 0.00000000 0.25000000
0.75000000 0.25000000 0.75000000
0.75000000 0.00000000 0.50000000
0.50000000 0.25000000 0.50000000
0.50000000 0.00000000 0.75000000
0.75000000 0.75000000 0.25000000
0.75000000 0.50000000 0.00000000
0.50000000 0.75000000 0.00000000
0.50000000 0.50000000 0.25000000
0.75000000 0.75000000 0.75000000
0.75000000 0.50000000 0.50000000
0.50000000 0.75000000 0.50000000
0.50000000 0.50000000 0.75000000
