Mg32 O32
1.0
   8.4239999999999995    0.0000000000000000    0.0000000000000000
   0.0000000000000000    8.4239999999999995    0.0000000000000000
   0.0000000000000000    0.0000000000000000    8.4239999999999995
Mg O
32 32
direct
   0.0000000000000000    0.0000000000000000    0.0000000000000000 Mg
   0.0000000000000000    0.2500000000000000    0.2500000000000000 Mg
   0.2500000000000000    0.0000000000000000    0.2500000000000000 Mg
   0.2500000000000000    0.2500000000000000    0.0000000000000000 Mg
   0.0000000000000000    0.0000000000000000    0.5000000000000000 Mg
   0.0000000000000000    0.2500000000000000    0.7500000000000000 Mg
   0.2500000000000000    0.0000000000000000    0.7500000000000000 Mg
   0.2500000000000000    0.2500000000000000    0.5000000000000000 Mg
   0.0000000000000000    0.5000000000000000    0.0000000000000000 Mg
   0.0000000000000000    0.7500000000000000    0.2500000000000000 Mg
   0.2500000000000000    0.5000000000000000    0.2500000000000000 Mg
   0.2500000000000000    0.7500000000000000    0.0000000000000000 Mg
   0.0000000000000000    0.5000000000000000    0.5000000000000000 Mg
   0.0000000000000000    0.7500000000000000    0.7500000000000000 Mg
   0.2500000000000000    0.5000000000000000    0.7500000000000000 Mg
   0.2500000000000000    0.7500000000000000    0.5000000000000000 Mg
   0.5000000000000000    0.0000000000000000    0.0000000000000000 Mg
   0.5000000000000000    0.2500000000000000    0.2500000000000000 Mg
   0.7500000000000000    0.0000000000000000    0.2500000000000000 Mg
   0.7500000000000000    0.2500000000000000    0.0000000000000000 Mg
   0.5000000000000000    0.0000000000000000    0.5000000000000000 Mg
   0.5000000000000000    0.2500000000000000    0.7500000000000000 Mg
   0.7500000000000000    0.0000000000000000    0.7500000000000000 Mg
   0.7500000000000000    0.2500000000000000    0.5000000000000000 Mg
   0.5000000000000000    0.5000000000000000    0.0000000000000000 Mg
   0.5000000000000000    0.7500000000000000    0.2500000000000000 Mg
   0.7500000000000000    0.5000000000000000    0.2500000000000000 Mg
   0.7500000000000000    0.7500000000000000    0.0000000000000000 Mg
   0.5000000000000000    0.5000000000000000    0.5000000000000000 Mg
   0.5000000000000000    0.7500000000000000    0.7500000000000000 Mg
   0.7500000000000000    0.5000000000000000    0.7500000000000000 Mg
   0.7500000000000000    0.7500000000000000    0.5000000000000000 Mg
   0.2500000000000000    0.2500000000000000    0.2500000000000000 O
   0.2500000000000000    0.0000000000000000    0.0000000000000000 O
   0.0000000000000000    0.2500000000000000    0.0000000000000000 O
   0.0000000000000000    0.0000000000000000    0.2500000000000000 O
   0.2500000000000000    0.2500000000000000    0.7500000000000000 O
   0.2500000000000000    0.0000000000000000    0.5000000000000000 O
   0.0000000000000000    0.2500000000000000    0.5000000000000000 O
   0.0000000000000000    0.0000000000000000    0.7500000000000000 O
   0.2500000000000000    0.7500000000000000    0.2500000000000000 O
   0.2500000000000000    0.5000000000000000    0.0000000000000000 O
   0.0000000000000000    0.7500000000000000    0.0000000000000000 O
   0.0000000000000000    0.5000000000000000    0.2500000000000000 O
   0.2500000000000000    0.7500000000000000    0.7500000000000000 O
   0.2500000000000000    0.5000000000000000    0.5000000000000000 O
   0.0000000000000000    0.7500000000000000    0.5000000000000000 O
   0.0000000000000000    0.5000000000000000    0.7500000000000000 O
   0.7500000000000000    0.2500000000000000    0.2500000000000000 O
   0.7500000000000000    0.0000000000000000    0.0000000000000000 O
   0.5000000000000000    0.2500000000000000    0.0000000000000000 O
   0.5000000000000000    0.0000000000000000    0.2500000000000000 O
   0.7500000000000000    0.2500000000000000    0.7500000000000000 O
   0.7500000000000000    0.0000000000000000    0.5000000000000000 O
   0.5000000000000000    0.2500000000000000    0.5000000000000000 O
   0.5000000000000000    0.0000000000000000    0.7500000000000000 O
   0.7500000000000000    0.7500000000000000    0.2500000000000000 O
   0.7500000000000000    0.5000000000000000    0.0000000000000000 O
   0.5000000000000000    0.7500000000000000    0.0000000000000000 O
   0.5000000000000000    0.5000000000000000    0.2500000000000000 O
   0.7500000000000000    0.7500000000000000    0.7500000000000000 O
   0.7500000000000000    0.5000000000000000    0.5000000000000000 O
   0.5000000000000000    0.7500000000000000    0.5000000000000000 O
   0.5000000000000000    0.5000000000000000    0.7500000000000000 O
