Mg_O q=+3 unperturbed relaxed
1.0
8.424000 0.000000 0.000000
0.000000 8.424000 0.000000
0.000000 0.000000 8.424000
Mg O
33 31
Direct
0.00000000 0.00000000 0.00000000
0.00000000 0.25000000 0.25000000
0.25000000 0.00000000 0.25000000
0.25000000 0.25000000 0.00000000
0.00000000 0.00000000 0.50000000
0.00000000 0.25000000 0.75000000
0.25000000 0.00000000 0.75000000
0.25000000 0.25000000 0.50000000
0.00000000 0.50000000 0.00000000
0.00000000 0.75000000 0.25000000
0.25000000 0.50000000 0.25000000
0.25000000 0.75000000 0.00000000
0.00000000 0.50000000 0.50000000
0.00000000 0.75000000 0.75000000
0.25000000 0.50000000 0.75000000
0.25000000 0.75000000 0.50000000
0.50000000 0.00000000 0.00000000
0.50000000 0.25000000 0.25000000
0.75000000 0.00000000 0.25000000
0.75000000 0.25000000 0.00000000
0.50000000 0.00000000 0.50000000
0.50000000 0.25000000 0.75000000
0.75000000 0.00000000 0.75000000
0.75000000 0.25000000 0.50000000
0.50000000 0.50000000 0.00000000
0.50000000 0.75000000 0.25000000
0.75000000 0.50000000 0.25000000
0.75000000 0.75000000 0.00000000
0.50000000 0.50000000 0.50000000
0.50000000 0.75000000 0.75000000
0.75000000 0.50000000 0.75000000
0.75000000 0.75000000 0.50000000
0.25000000 0.25000000 0.25000000
0.25000000 0.00000000 0.00000000
0.00000000 0.25000000 0.00000000
0.00000000 0.00000000 0.25000000
0.25000000 0.25000000 0.75000000
0.25000000 0.00000000 0.50000000
0.00000000 0.25000000 0.50000000
0.00000000 0.00000000 0.75000000
0.25000000 0.75000000 0.25000000
0.25000000 0.50000000 0.00000000
0.00000000 0.75000000 0.00000000
0.00000000 0.50000000 0.25000000
0.25000000 0.75000000 0.75000000
0.25000000 0.50000000 0.50000000
0.00000000 0.75000000 0.50000000
0.00000000 0.50000000 0.75000000
0.75000000 0.25000000 0.25000000
0.75000000 0.00000000 0.00000000
0.50000000 0.25000000 0.00000000
0.50000000 0.00000000 0.25000000
0.75000000 0.25000000 0.75000000
0.75000000 0.00000000 0.50000000
0.50000000 0.25000000 0.50000000
0.50000000 0.00000000 0.75000000
0.75000000 0.75000000 0.25000000
0.75000000 0.50000000 0.00000000
0.50000000 0.75000000 0.00000000
0.50000000 0.50000000 0.25000000
0.75000000 0.75000000 0.75000000
0.75000000 0.50000000 0.50000000
0.50000000 0.75000000 0.50000000
0.50000000 0.50000000 0.75000000
