Mg_O q=+3 rattled_0.10A initial
1.0
8.424000 0.000000 0.000000
0.000000 8.424000 0.000000
0.000000 0.000000 8.424000
Mg O
33 31
Direct
0.00120000 0.99940000 0.00040000
0.99880000 0.25060000 0.24960000
0.25120000 0.99940000 0.25040000
0.24880000 0.25060000 0.99960000
0.00120000 0.99940000 0.50040000
0.99880000 0.25060000 0.74960000
0.25120000 0.99940000 0.75040000
0.24880000 0.25060000 0.49960000
0.00120000 0.49940000 0.00040000
0.99880000 0.75060000 0.24960000
0.25120000 0.49940000 0.25040000
0.24880000 0.75060000 0.99960000
0.00120000 0.49940000 0.50040000
0.99880000 0.75060000 0.74960000
0.25120000 0.49940000 0.75040000
0.24880000 0.75060000 0.49960000
0.50120000 0.99940000 0.00040000
0.49880000 0.25060000 0.24960000
0.75120000 0.99940000 0.25040000
0.74880000 0.25060000 0.99960000
0.50120000 0.99940000 0.50040000
0.49880000 0.25060000 0.74960000
0.75120000 0.99940000 0.75040000
0.74880000 0.25060000 0.49960000
0.50120000 0.49940000 0.00040000
0.49880000 0.75060000 0.24960000
0.75120000 0.49940000 0.25040000
0.74880000 0.75060000 0.99960000
0.50120000 0.49940000 0.50040000
0.49880000 0.75060000 0.74960000
0.75120000 0.49940000 0.75040000
0.74880000 0.75060000 0.49960000
0.25120000 0.24940000 0.25040000
0.25000000 0.00000000 0.00000000
0.00000000 0.25000000 0.00000000
0.00000000 0.00000000 0.25000000
0.25000000 0.25000000 0.75000000
0.25000000 0.00000000 0.50000000
0.00000000 0.25000000 0.50000000
0.00000000 0.00000000 0.75000000
0.25000000 0.75000000 0.25000000
0.25000000 0.50000000 0.00000000
0.00000000 0.75000000 0.00000000
0.00000000 0.50000000 0.25000000
0.25000000 0.75000000 0.75000000
0.25000000 0.50000000 0.50000000
0.00000000 0.75000000 0.50000000
0.00000000 0.50000000 0.75000000
0.75000000 0.25000000 0.25000000
0.75000000 0.00000000 0.00000000
0.50000000 0.25000000 0.00000000
0.50000000 0.00000000 0.25000000
0.75000000 0.25000000 0.75000000
0.75000000 0.00000000 0.50000000
0.50000000 0.25000000 0.50000000
0.50000000 0.00000000 0.75000000
0.75000000 0.75000000 0.25000000
0.75000000 0.50000000 0.00000000
0.50000000 0.75000000 0.00000000
0.50000000 0.50000000 0.25000000
0.75000000 0.75000000 0.75000000
0.75000000 0.50000000 0.50000000
0.50000000 0.75000000 0.50000000
0.50000000 0.50000000 0.75000000
