Mg_O q=+4 rattled_0.10A relaxed
1.0
8.424000 0.000000 0.000000
0.000000 8.424000 0.000000
0.000000 0.000000 8.424000
Mg O
33 31
Direct
0.00060000 0.99970000 0.00020000
0.99940000 0.25030000 0.24980000
0.25060000 0.99970000 0.25020000
0.24940000 0.25030000 0.99980000
0.00060000 0.99970000 0.50020000
0.99940000 0.25030000 0.74980000
0.25060000 0.99970000 0.75020000
0.24940000 0.25030000 0.49980000
0.00060000 0.49970000 0.00020000
0.99940000 0.75030000 0.24980000
0.25060000 0.49970000 0.25020000
0.24940000 0.75030000 0.99980000
0.00060000 0.49970000 0.50020000
0.99940000 0.75030000 0.74980000
0.25060000 0.49970000 0.75020000
0.24940000 0.75030000 0.49980000
0.50060000 0.99970000 0.00020000
0.49940000 0.25030000 0.24980000
0.75060000 0.99970000 0.25020000
0.74940000 0.25030000 0.99980000
0.50060000 0.99970000 0.50020000
0.49940000 0.25030000 0.74980000
0.75060000 0.99970000 0.75020000
0.74940000 0.25030000 0.49980000
0.50060000 0.49970000 0.00020000
0.49940000 0.75030000 0.24980000
0.75060000 0.49970000 0.25020000
0.74940000 0.75030000 0.99980000
0.50060000 0.49970000 0.50020000
0.49940000 0.75030000 0.74980000
0.75060000 0.49970000 0.75020000
0.74940000 0.75030000 0.49980000
0.25060000 0.24970000 0.25020000
0.25000000 0.00000000 0.00000000
0.00000000 0.25000000 0.00000000
0.00000000 0.00000000 0.25000000
0.25000000 0.25000000 0.75000000
0.25000000 0.00000000 0.50000000
0.00000000 0.25000000 0.50000000
0.00000000 0.00000000 0.75000000
0.25000000 0.75000000 0.25000000
0.25000000 0.50000000 0.00000000
0.00000000 0.75000000 0.00000000
0.00000000 0.50000000 0.25000000
0.25000000 0.75000000 0.75000000
0.25000000 0.50000000 0.50000000
0.00000000 0.75000000 0.50000000
0.00000000 0.50000000 0.75000000
0.75000000 0.25000000 0.25000000
0.75000000 0.00000000 0.00000000
0.50000000 0.25000000 0.00000000
0.50000000 0.00000000 0.25000000
0.75000000 0.25000000 0.75000000
0.75000000 0.00000000 0.50000000
0.50000000 0.25000000 0.50000000
0.50000000 0.00000000 0.75000000
0.75000000 0.75000000 0.25000000
0.75000000 0.50000000 0.00000000
0.50000000 0.75000000 0.00000000
0.50000000 0.50000000 0.25000000
0.75000000 0.75000000 0.75000000
0.75000000 0.50000000 0.50000000
0.50000000 0.75000000 0.50000000
0.50000000 0.50000000 0.75000000
