Mg_O q=+1 bond_compress_0.80 relaxed
1.0
8.424000 0.000000 0.000000
0.000000 8.424000 0.000000
0.000000 0.000000 8.424000
Mg O
33 31
Direct
0.99875000 0.00062500 0.99958333
0.00125000 0.24937500 0.25041667
0.24875000 0.00062500 0.24958333
0.25125000 0.24937500 0.00041667
0.99875000 0.00062500 0.49958333
0.00125000 0.24937500 0.75041667
0.24875000 0.00062500 0.74958333
0.25125000 0.24937500 0.50041667
0.99875000 0.50062500 0.99958333
0.00125000 0.74937500 0.25041667
0.24875000 0.50062500 0.24958333
0.25125000 0.74937500 0.00041667
0.99875000 0.50062500 0.49958333
0.00125000 0.74937500 0.75041667
0.24875000 0.50062500 0.74958333
0.25125000 0.74937500 0.50041667
0.49875000 0.00062500 0.99958333
0.50125000 0.24937500 0.25041667
0.74875000 0.00062500 0.24958333
0.75125000 0.24937500 0.00041667
0.49875000 0.00062500 0.49958333
0.50125000 0.24937500 0.75041667
0.74875000 0.00062500 0.74958333
0.75125000 0.24937500 0.50041667
0.49875000 0.50062500 0.99958333
0.50125000 0.74937500 0.25041667
0.74875000 0.50062500 0.24958333
0.75125000 0.74937500 0.00041667
0.49875000 0.50062500 0.49958333
0.50125000 0.74937500 0.75041667
0.74875000 0.50062500 0.74958333
0.75125000 0.74937500 0.50041667
0.24875000 0.25062500 0.24958333
0.25000000 0.00000000 0.00000000
0.00000000 0.25000000 0.00000000
0.00000000 0.00000000 0.25000000
0.25000000 0.25000000 0.75000000
0.25000000 0.00000000 0.50000000
0.00000000 0.25000000 0.50000000
0.00000000 0.00000000 0.75000000
0.25000000 0.75000000 0.25000000
0.25000000 0.50000000 0.00000000
0.00000000 0.75000000 0.00000000
0.00000000 0.50000000 0.25000000
0.25000000 0.75000000 0.75000000
0.25000000 0.50000000 0.50000000
0.00000000 0.75000000 0.50000000
0.00000000 0.50000000 0.75000000
0.75000000 0.25000000 0.25000000
0.75000000 0.00000000 0.00000000
0.50000000 0.25000000 0.00000000
0.50000000 0.00000000 0.25000000
0.75000000 0.25000000 0.75000000
0.75000000 0.00000000 0.50000000
0.50000000 0.25000000 0.50000000
0.50000000 0.00000000 0.75000000
0.75000000 0.75000000 0.25000000
0.75000000 0.50000000 0.00000000
0.50000000 0.75000000 0.00000000
0.50000000 0.50000000 0.25000000
0.75000000 0.75000000 0.75000000
0.75000000 0.50000000 0.50000000
0.50000000 0.75000000 0.50000000
0.50000000 0.50000000 0.75000000
