MgO 64-atom initial supercell
1.0
8.424000 0.000000 0.000000
0.000000 8.424000 0.000000
0.000000 0.000000 8.424000
Mg O
32 32
Direct
0.00000000 0.00000000 0.00000000
0.00000000 0.25000000 0.25000000
0.25000000 0.00000000 0.25000000
0.25000000 0.25000000 0.00000000
0.00000000 0.00000000 0.50000000
0.00000000 0.25000000 0.75000000
0.25000000 0.00000000 0.75000000
0.25000000 0.25000000 0.50000000
0.00000000 0.50000000 0.00000000
0.00000000 0.75000000 0.25000000
0.25000000 0.50000000 0.25000000
0.25000000 0.75000000 0.00000000
0.00000000 0.50000000 0.50000000
0.00000000 0.75000000 0.75000000
0.25000000 0.50000000 0.75000000
0.25000000 0.75000000 0.50000000
0.50000000 0.00000000 0.00000000
0.50000000 0.25000000 0.25000000
0.75000000 0.00000000 0.25000000
0.75000000 0.25000000 0.00000000
0.50000000 0.00000000 0.50000000
0.50000000 0.25000000 0.75000000
0.75000000 0.00000000 0.75000000
0.75000000 0.25000000 0.50000000
0.50000000 0.50000000 0.00000000
0.50000000 0.75000000 0.25000000
0.75000000 0.50000000 0.25000000
0.75000000 0.75000000 0.00000000
0.50000000 0.50000000 0.50000000
0.50000000 0.75000000 0.75000000
0.75000000 0.50000000 0.75000000
0.75000000 0.75000000 0.50000000
0.25000000 0.25000000 0.25000000
0.25000000 0.00000000 0.00000000
0.00000000 0.25000000 0.00000000
0.00000000 0.00000000 0.25000000
0.25000000 0.25000000 0.75000000
0.25000000 0.00000000 0.50000000
0.00000000 0.25000000 0.50000000
0.00000000 0.00000000 0.75000000
0.25000000 0.75000000 0.25000000
0.25000000 0.50000000 0.00000000
0.00000000 0.75000000 0.00000000
0.00000000 0.50000000 0.25000000
0.25000000 0.75000000 0.75000000
0.25000000 0.50000000 0.50000000
0.00000000 0.75000000 0.50000000
0.00000000 0.50000000 0.75000000
0.75000000 0.25000000 0.25000000
0.75000000 0.00000000 0.00000000
0.50000000 0.25000000 0.00000000
0.50000000 0.00000000 0.25000000
0.75000000 0.25000000 0.75000000
0.75000000 0.00000000 0.50000000
0.50000000 0.25000000 0.50000000
0.50000000 0.00000000 0.75000000
0.75000000 0.75000000 0.25000000
0.75000000 0.50000000 0.00000000
0.50000000 0.75000000 0.00000000
0.50000000 0.50000000 0.25000000
0.75000000 0.75000000 0.75000000
0.75000000 0.50000000 0.50000000
0.50000000 0.75000000 0.50000000
0.50000000 0.50000000 0.75000000
