
vasp.synthetic 6.x                         17Sep2026
------------------------------------------------------------
SYNTHETIC TRAINING OUTPUT — not produced by VASP
SYSTEM = Mg_O_q+1_unperturbed
INCAR:
  ENCUT = 600
  EDIFF  = 1.0E-06
  EDIFFG = -2.0E-02
  ISMEAR = 0
  SIGMA  = 0.05
  ISPIN  = 2
  IBRION = 2
  NSW    = 120

POSCAR: ions per type = 33 31
NIONS = 64
NELECT = 639.000
NKPTS = 8
k-point mesh = 2 2 2

Iteration   1(  1)  E0= -395.57388300  d E = -8.42117E-01
Iteration   2(  1)  E0= -396.24219500  d E = -6.68312E-01
Iteration   3(  1)  E0= -396.39435600  d E = -1.52161E-01
Iteration   4(  1)  E0= -396.41479300  d E = -2.04370E-02
Iteration   5(  1)  E0= -396.41600000  d E = -1.20700E-03

POSITION                                       TOTAL-FORCE (eV/Angst)
-----------------------------------------------------------------------------------
  0.00000  0.00000  0.00000          0.031333  0.000000  0.000000
  2.10600  2.10600  2.10600        - 0.031333  0.000000  0.000000
-----------------------------------------------------------------------------------
total drift:                              0.000001 -0.000002  0.000001

  energy  without entropy= -396.41567900  energy(sigma->0) = -396.41600000
  free  energy   TOTEN  = -396.41611400 eV
  final energy (E0)     = -396.41600000 eV
  number of ionic steps = 27
  maximum force         = 0.031333 eV/Ang
  volume of cell        = 597.798849 Ang^3

reached required accuracy - stopping structural energy minimisation
General timing and accounting informations for this job:
  Total CPU time used (sec): 73.42
------------------------------------------------------------
